Name : 5i30-17
DIMENSION : 30
NUMBER_OF_CLUSTERS: 7
NODE_COORD_SECTION
1 271  379
2 421  837
3 1073  1106
4 147  1142
5 733  902
6 659  710
7 256  983
8 874  1147
9 380  526
10 550  549
11 325  497
12 784  284
13 5  311
14 359  869
15 71  206
16 246  1038
17 679  1011
18 110  408
19 280  749
20 1003  827
21 21  704
22 324  -39
23 137  93
24 657  704
25 154  454
26 411  1007
27 176  247
28 850  810
29 373  -156
30 108  -306	
CLUSTER_SECTION:
1 2 -1
2 5 -1
3 1 -1
4 15 30 -1
5 12 -1
6 3 8 28 -1
7 4 -1
